
Gurobi 11.0.3 (win64) logging started Wed Sep  4 16:20:03 2024

Set parameter LogFile to value "C:\Users\ealvarezq\Desktop\K.Investments_per_hour\IEEE118_mod2_ByStages_nc80/openStarNet_IEEE118_mod2_ByStages_nc80.log"
Set parameter Method to value 2
Set parameter MIPFocus to value 1
Set parameter Presolve to value 2
Set parameter RINS to value 100
Set parameter MIPGap to value 0.01
Set parameter Threads to value 24
Set parameter TimeLimit to value 259200
Set parameter IterationLimit to value 760000000
Gurobi Optimizer version 11.0.3 build v11.0.3rc0 (win64 - Windows Server 2019.0 (17763.2))

CPU model: AMD Ryzen Threadripper PRO 3955WX 16-Cores, instruction set [SSE2|AVX|AVX2]
Thread count: 16 physical cores, 32 logical processors, using up to 24 threads

Optimize a model with 113683 rows, 83995 columns and 292726 nonzeros
Model fingerprint: 0xf655cfbd
Variable types: 83961 continuous, 34 integer (34 binary)
Coefficient statistics:
  Matrix range     [2e-03, 9e+03]
  Objective range  [1e+00, 1e+00]
  Bounds range     [1e-04, 3e+00]
  RHS range        [2e-04, 3e+00]
Presolve removed 76908 rows and 38760 columns
Presolve time: 0.52s
Presolved: 36775 rows, 45235 columns, 134460 nonzeros
Variable types: 45201 continuous, 34 integer (34 binary)
Root relaxation presolved: 36775 rows, 45235 columns, 134460 nonzeros

Root barrier log...

Ordering time: 0.03s

Barrier statistics:
 Dense cols : 34
 AA' NZ     : 1.666e+05
 Factor NZ  : 6.451e+05 (roughly 40 MB of memory)
 Factor Ops : 1.348e+07 (less than 1 second per iteration)
 Threads    : 23

                  Objective                Residual
Iter       Primal          Dual         Primal    Dual     Compl     Time
   0   9.06646798e+06 -8.98725466e+08  1.57e+01 1.37e+03  3.69e+04     1s
   1   2.18988377e+06 -3.46171511e+08  3.44e+00 1.09e-08  7.62e+03     1s
   2   5.64208565e+05 -1.74905230e+08  5.86e-01 1.83e-08  2.19e+03     1s
   3   3.92007703e+05 -4.09899557e+07  2.62e-01 3.31e-09  5.04e+02     1s
   4   2.40501091e+05 -9.66170527e+06  1.60e-02 1.00e-09  9.43e+01     1s
   5   1.71163530e+05 -2.50608887e+06  3.85e-03 2.51e-10  2.49e+01     2s
   6   9.36714310e+04 -7.09147508e+05  1.26e-03 6.92e-11  7.42e+00     2s
   7   3.75658563e+04 -1.88087160e+05  3.61e-04 1.70e-11  2.08e+00     2s
   8   1.61006648e+04 -6.98864695e+04  1.22e-04 6.51e-12  7.92e-01     2s
   9   9.88953861e+03 -4.35495191e+04  5.90e-05 4.87e-12  4.92e-01     2s
  10   6.34824002e+03 -1.13388487e+04  2.89e-05 4.97e-12  1.63e-01     2s
  11   4.63428045e+03 -4.73083773e+03  1.76e-05 8.43e-12  8.63e-02     2s
  12   3.03072167e+03 -2.03521037e+03  8.61e-06 4.17e-12  4.67e-02     2s
  13   2.39184692e+03 -4.09284127e+02  5.39e-06 6.59e-12  2.58e-02     2s
  14   1.98360257e+03  4.33577565e+02  3.46e-06 2.60e-12  1.43e-02     2s
  15   1.61194879e+03  8.65302744e+02  1.80e-06 6.77e-12  6.88e-03     2s
  16   1.42546689e+03  1.01069440e+03  9.99e-07 3.27e-12  3.82e-03     2s
  17   1.32600944e+03  1.05831717e+03  5.80e-07 3.14e-12  2.47e-03     2s
  18   1.26707427e+03  1.10718940e+03  3.34e-07 2.65e-12  1.47e-03     2s
  19   1.23637578e+03  1.13556516e+03  2.06e-07 2.93e-12  9.29e-04     2s
  20   1.21315170e+03  1.15228891e+03  1.13e-07 5.09e-12  5.61e-04     2s
  21   1.20069764e+03  1.16369625e+03  6.38e-08 3.14e-12  3.41e-04     2s
  22   1.19216317e+03  1.17680013e+03  3.16e-08 1.80e-11  1.42e-04     2s
  23   1.18815293e+03  1.18042205e+03  1.70e-08 1.21e-11  7.12e-05     2s
  24   1.18691149e+03  1.18162324e+03  1.25e-08 6.10e-12  4.87e-05     2s
  25   1.18562937e+03  1.18232415e+03  7.97e-09 5.30e-12  3.05e-05     2s
  26   1.18420180e+03  1.18296459e+03  2.93e-09 7.22e-12  1.14e-05     2s
  27   1.18371716e+03  1.18319961e+03  1.23e-09 3.17e-12  4.77e-06     2s
  28   1.18349653e+03  1.18331461e+03  2.19e-09 2.88e-12  1.68e-06     2s
  29   1.18338189e+03  1.18335121e+03  9.57e-09 4.45e-12  2.83e-07     2s
  30   1.18336212e+03  1.18335339e+03  2.52e-07 2.66e-12  8.05e-08     2s
  31   1.18335726e+03  1.18335465e+03  5.60e-08 3.46e-12  2.40e-08     2s
  32   1.18335586e+03  1.18335564e+03  5.47e-09 5.27e-12  2.01e-09     2s
  33   1.18335578e+03  1.18335575e+03  1.08e-09 5.04e-12  2.48e-10     2s
  34   1.18335577e+03  1.18335577e+03  2.53e-10 7.27e-12  9.65e-13     2s

Barrier solved model in 34 iterations and 2.07 seconds (1.40 work units)
Optimal objective 1.18335577e+03


Root relaxation: objective 1.183356e+03, 3156 iterations, 1.81 seconds (1.18 work units)

    Nodes    |    Current Node    |     Objective Bounds      |     Work
 Expl Unexpl |  Obj  Depth IntInf | Incumbent    BestBd   Gap | It/Node Time

     0     0 1183.35577    0   23          - 1183.35577      -     -    2s
H    0     0                    6109.1582752 1183.35577  80.6%     -    5s
H    0     0                    3412.1459933 1183.35577  65.3%     -    7s
     0     0 1203.05336    0   24 3412.14599 1203.05336  64.7%     -   13s
H    0     0                    1370.1158563 1203.05336  12.2%     -   14s
     0     0 1203.62794    0   23 1370.11586 1203.62794  12.2%     -   15s
     0     0 1203.64143    0   23 1370.11586 1203.64143  12.2%     -   15s
     0     0 1205.01690    0   21 1370.11586 1205.01690  12.0%     -   17s
H    0     0                    1369.8909306 1205.01690  12.0%     -   19s
     0     0 1205.13751    0   21 1369.89093 1205.13751  12.0%     -   19s
     0     0 1205.13751    0   21 1369.89093 1205.13751  12.0%     -   19s
     0     0 1209.02106    0   20 1369.89093 1209.02106  11.7%     -   22s
     0     0 1209.02106    0   20 1369.89093 1209.02106  11.7%     -   22s
     0     0 1209.02106    0   20 1369.89093 1209.02106  11.7%     -   22s
     0     0 1209.02106    0   20 1369.89093 1209.02106  11.7%     -   24s
     0     0 1209.02106    0   20 1369.89093 1209.02106  11.7%     -   25s
     0     0 1223.24770    0   20 1369.89093 1223.24770  10.7%     -   27s
H    0     0                    1342.4813720 1223.24770  8.88%     -  265s
     0     2 1223.24770    0   20 1342.48137 1223.24770  8.88%     -  266s
     3     8 1305.84418    2   20 1342.48137 1223.24770  8.88%  2335  272s
     7    14 1326.70978    3   19 1342.48137 1237.15453  7.85%  1884  278s
    15    22     cutoff    4      1342.48137 1248.45364  7.00%  1698  284s
    29    40 1260.53342    5   19 1342.48137 1255.55361  6.48%  1379  290s
    51    60 1269.42715    6   18 1342.48137 1260.53933  6.10%  1363  297s
    75    72 1276.65871    7   18 1342.48137 1260.61193  6.10%  1348  300s
    99    82 1285.85704    8   16 1342.48137 1260.61193  6.10%  1238  306s
   123    91 1293.91978    9   14 1342.48137 1260.61193  6.10%  1212  310s
   178   108 1320.98397   12   10 1342.48137 1260.61193  6.10%  1012  316s
   208   125 1312.16307   11   12 1342.48137 1260.61193  6.10%  1008  327s
   242   128 1321.71812   13   10 1342.48137 1260.61193  6.10%   978  339s
   280   142     cutoff   14      1342.48137 1260.61193  6.10%   992  342s
   326   137     cutoff   14      1342.48137 1260.61193  6.10%   915  346s
   374   134 1329.77694   11   12 1342.48137 1260.61193  6.10%   848  357s
   425   131     cutoff   13      1342.48137 1260.61193  6.10%   843  368s
   477   131     cutoff   13      1342.48137 1260.61193  6.10%   839  373s
   529   127 1340.62775   12   11 1342.48137 1260.61193  6.10%   807  381s
   582   119     cutoff   13      1342.48137 1268.89502  5.48%   813  386s
   657   114 1277.44293    7   16 1342.48137 1271.43064  5.29%   772  393s
   707   117 1277.85095    8   15 1342.48137 1271.43064  5.29%   793  398s
   752   114     cutoff    9      1342.48137 1271.43064  5.29%   783  406s
   805   100     cutoff    8      1342.48137 1271.43064  5.29%   765  412s
   897    82 1328.47774    7   16 1342.48137 1271.47710  5.29%   728  468s
   970    53     cutoff    8      1342.48137 1271.47710  5.29%   710  473s
  1058    30     cutoff    9      1342.48137 1275.68110  4.98%   691  476s
  1200    38     cutoff    9      1342.48137 1288.39394  4.03%   657  605s
  1319    25 1328.65852   13    9 1342.48137 1288.39394  4.03%   628  610s
  1434     8 1331.55366   11   10 1342.48137 1311.89468  2.28%   604  616s

Cutting planes:
  Gomory: 2
  Implied bound: 193
  MIR: 366
  Flow cover: 1
  RLT: 1

Explored 1468 nodes (887620 simplex iterations) in 618.75 seconds (565.76 work units)
Thread count was 24 (of 32 available processors)

Solution count 5: 1342.48 1369.89 1370.12 ... 6109.16

Optimal solution found (tolerance 1.00e-02)
Best objective 1.342481372045e+03, best bound 1.342481372045e+03, gap 0.0000%

Gurobi 11.0.3 (win64) logging started Wed Sep  4 16:31:10 2024

Set parameter LogFile to value "C:\Users\ealvarezq\Desktop\K.Investments_per_hour\IEEE118_mod2_ByStages_nc80/openStarNet_IEEE118_mod2_ByStages_nc80.log"
Set parameter Method to value 2
Set parameter MIPFocus to value 1
Set parameter Presolve to value 2
Set parameter RINS to value 100
Set parameter MIPGap to value 0.01
Set parameter Threads to value 24
Set parameter TimeLimit to value 259200
Set parameter IterationLimit to value 760000000
Gurobi Optimizer version 11.0.3 build v11.0.3rc0 (win64 - Windows Server 2019.0 (17763.2))

CPU model: AMD Ryzen Threadripper PRO 3955WX 16-Cores, instruction set [SSE2|AVX|AVX2]
Thread count: 16 physical cores, 32 logical processors, using up to 24 threads

Optimize a model with 113683 rows, 83961 columns and 281812 nonzeros
Model fingerprint: 0x6bb4fde8
Coefficient statistics:
  Matrix range     [2e-03, 9e+03]
  Objective range  [1e+00, 1e+00]
  Bounds range     [1e-04, 3e+00]
  RHS range        [2e-04, 2e+02]
Presolve removed 84553 rows and 36703 columns
Presolve time: 0.26s
Presolved: 29130 rows, 47514 columns, 113828 nonzeros

Ordering time: 0.02s

Barrier statistics:
 AA' NZ     : 9.501e+04
 Factor NZ  : 3.837e+05 (roughly 34 MB of memory)
 Factor Ops : 5.579e+06 (less than 1 second per iteration)
 Threads    : 24

                  Objective                Residual
Iter       Primal          Dual         Primal    Dual     Compl     Time
   0   1.85987622e+07 -4.57905907e+08  1.12e+02 9.64e+01  2.04e+04     1s
   1   2.02388706e+06 -1.44066309e+08  1.07e+01 1.59e-12  2.58e+03     1s
   2   5.17483107e+05 -2.65089146e+07  1.85e+00 1.82e-12  3.90e+02     1s
   3   1.95917289e+05 -3.80178379e+06  5.10e-02 1.59e-12  4.02e+01     1s
   4   8.84565522e+04 -5.64728151e+05  6.77e-03 1.09e-11  6.34e+00     1s
   5   3.56727656e+04 -1.27293719e+05  2.06e-03 3.18e-12  1.57e+00     1s
   6   1.21793413e+04 -3.76075440e+04  4.56e-04 9.09e-13  4.80e-01     1s
   7   7.52118537e+03 -1.32744710e+04  2.15e-04 4.51e-13  2.00e-01     1s
   8   5.21920653e+03 -5.25197561e+03  1.23e-04 3.24e-13  1.01e-01     1s
   9   3.52646479e+03 -2.35100970e+03  6.35e-05 2.53e-13  5.66e-02     1s
  10   2.30896127e+03  1.18820347e+01  2.53e-05 3.62e-13  2.21e-02     1s
  11   2.00594293e+03  6.35360368e+02  1.68e-05 2.81e-13  1.32e-02     1s
  12   1.74282346e+03  8.55313482e+02  9.86e-06 5.79e-13  8.55e-03     1s
  13   1.59159528e+03  1.04038922e+03  5.98e-06 3.58e-13  5.31e-03     1s
  14   1.49869223e+03  1.18326273e+03  3.66e-06 3.54e-13  3.04e-03     1s
  15   1.42179553e+03  1.25527097e+03  1.80e-06 3.17e-13  1.60e-03     1s
  16   1.37434664e+03  1.29061587e+03  6.92e-07 3.20e-13  8.07e-04     1s
  17   1.35575964e+03  1.31446724e+03  2.69e-07 2.56e-13  3.98e-04     1s
  18   1.34699323e+03  1.33675533e+03  8.32e-08 3.78e-13  9.86e-05     1s
  19   1.34452261e+03  1.34027932e+03  3.67e-08 3.82e-13  4.09e-05     1s
  20   1.34296012e+03  1.34164351e+03  8.11e-09 3.33e-13  1.27e-05     1s
  21   1.34251482e+03  1.34242970e+03  4.52e-10 3.76e-13  8.20e-07     1s
  22   1.34248322e+03  1.34248042e+03  2.28e-10 7.96e-13  2.70e-08     1s
  23   1.34248138e+03  1.34248137e+03  4.03e-10 4.99e-13  8.99e-11     1s

Barrier solved model in 23 iterations and 1.17 seconds (0.48 work units)
Optimal objective 1.34248138e+03

Crossover log...

    8314 DPushes remaining with DInf 0.0000000e+00                 1s
       0 DPushes remaining with DInf 0.0000000e+00                 1s

     515 PPushes remaining with PInf 0.0000000e+00                 1s
       0 PPushes remaining with PInf 0.0000000e+00                 1s

  Push phase complete: Pinf 0.0000000e+00, Dinf 3.3122398e-12      1s

Iteration    Objective       Primal Inf.    Dual Inf.      Time
    2311    1.3424814e+03   0.000000e+00   0.000000e+00      1s

Solved in 2311 iterations and 1.39 seconds (0.59 work units)
Optimal objective  1.342481372e+03
